\ Model Hospital NetwORk Model
\ LP format - for model browsing. Use MPS format to capture full model detail.
Minimize
  100 y_1_h1 + 90 y_1_h2 + 50 y_1_h3 + 180 y_1_h4 + 200 y_1_h5 + 200 y_2_h1
   + 100 y_2_h2 + 250 y_2_h3 + 200 y_2_h4 + 300 y_2_h5 + 300 y_3_h1
   + 250 y_3_h2 + 300 y_3_h3 + 480 y_3_h4 + 400 y_3_h5 - 100 Constant
Subject To
 R0: y_1_h1 + y_2_h1 + y_3_h1 <= 1
 R1: y_1_h2 + y_2_h2 + y_3_h2 <= 1
 R2: y_1_h3 + y_2_h3 + y_3_h3 <= 1
 R3: y_1_h4 + y_2_h4 + y_3_h4 <= 1
 R4: y_1_h5 + y_2_h5 + y_3_h5 <= 1
 R5: x_h1_c1 + x_h1_c2 + x_h1_c3 + x_h1_c4 + x_h1_c5 - y_1_h1 - 2 y_2_h1
   - 3 y_3_h1 <= 0
 R6: x_h2_c1 + x_h2_c2 + x_h2_c3 + x_h2_c4 + x_h2_c5 + x_h2_c7 - y_1_h2
   - 3 y_2_h2 - 4 y_3_h2 <= 0
 R7: x_h3_c3 + x_h3_c4 + x_h3_c5 - y_1_h3 - 2 y_2_h3 - 3 y_3_h3 <= 0
 R8: x_h4_c2 + x_h4_c6 + x_h4_c7 + x_h4_c8 - 2 y_1_h4 - 2 y_2_h4 - 3 y_3_h4
   <= 0
 R9: x_h5_c1 + x_h5_c2 + x_h5_c3 + x_h5_c4 + x_h5_c5 + x_h5_c6 + x_h5_c7
   - y_1_h5 - 2 y_2_h5 - 3 y_3_h5 <= 0
 R10: x_h1_c1 + x_h2_c1 + x_h5_c1 = 1
 R11: x_h1_c2 + x_h2_c2 + x_h4_c2 + x_h5_c2 = 1
 R12: x_h1_c3 + x_h2_c3 + x_h3_c3 + x_h5_c3 = 1
 R13: x_h1_c4 + x_h2_c4 + x_h3_c4 + x_h5_c4 = 1
 R14: x_h1_c5 + x_h2_c5 + x_h3_c5 + x_h5_c5 = 1
 R15: x_h4_c6 + x_h5_c6 = 1
 R16: x_h2_c7 + x_h4_c7 + x_h5_c7 = 1
 R17: x_h4_c8 = 1
 R18: 7.071067811865476 x_h1_c1 - 20 y_1_h1 - 20 y_2_h1 - 30 y_3_h1 <= 0
 R19: 25 x_h1_c2 - 20 y_1_h1 - 20 y_2_h1 - 30 y_3_h1 <= 0
 R20: 11.18033988749895 x_h1_c3 - 20 y_1_h1 - 20 y_2_h1 - 30 y_3_h1 <= 0
 R21: 11.18033988749895 x_h1_c4 - 20 y_1_h1 - 20 y_2_h1 - 30 y_3_h1 <= 0
 R22: 15.8113883008419 x_h1_c5 - 20 y_1_h1 - 20 y_2_h1 - 30 y_3_h1 <= 0
 R23: 7.071067811865476 x_h2_c1 - 20 y_1_h2 - 20 y_2_h2 - 30 y_3_h2 <= 0
 R24: 15 x_h2_c2 - 20 y_1_h2 - 20 y_2_h2 - 30 y_3_h2 <= 0
 R25: 5 x_h2_c3 - 20 y_1_h2 - 20 y_2_h2 - 30 y_3_h2 <= 0
 R26: 11.18033988749895 x_h2_c4 - 20 y_1_h2 - 20 y_2_h2 - 30 y_3_h2 <= 0
 R27: 15.8113883008419 x_h2_c5 - 20 y_1_h2 - 20 y_2_h2 - 30 y_3_h2 <= 0
 R28: 28.2842712474619 x_h2_c7 - 20 y_1_h2 - 20 y_2_h2 - 30 y_3_h2 <= 0
 R29: 26.92582403567252 x_h3_c3 - 20 y_1_h3 - 20 y_2_h3 - 30 y_3_h3 <= 0
 R30: 20.6155281280883 x_h3_c4 - 20 y_1_h3 - 20 y_2_h3 - 30 y_3_h3 <= 0
 R31: 15.8113883008419 x_h3_c5 - 20 y_1_h3 - 20 y_2_h3 - 30 y_3_h3 <= 0
 R32: 15 x_h4_c2 - 20 y_1_h4 - 20 y_2_h4 - 30 y_3_h4 <= 0
 R33: 10 x_h4_c6 - 20 y_1_h4 - 20 y_2_h4 - 30 y_3_h4 <= 0
 R34: 22.3606797749979 x_h4_c7 - 20 y_1_h4 - 20 y_2_h4 - 30 y_3_h4 <= 0
 R35: 25 x_h4_c8 - 20 y_1_h4 - 20 y_2_h4 - 30 y_3_h4 <= 0
 R36: 21.21320343559643 x_h5_c1 - 20 y_1_h5 - 20 y_2_h5 - 30 y_3_h5 <= 0
 R37: 11.18033988749895 x_h5_c2 - 20 y_1_h5 - 20 y_2_h5 - 30 y_3_h5 <= 0
 R38: 11.18033988749895 x_h5_c3 - 20 y_1_h5 - 20 y_2_h5 - 30 y_3_h5 <= 0
 R39: 15 x_h5_c4 - 20 y_1_h5 - 20 y_2_h5 - 30 y_3_h5 <= 0
 R40: 15.8113883008419 x_h5_c5 - 20 y_1_h5 - 20 y_2_h5 - 30 y_3_h5 <= 0
 R41: 20 x_h5_c6 - 20 y_1_h5 - 20 y_2_h5 - 30 y_3_h5 <= 0
 R42: 14.14213562373095 x_h5_c7 - 20 y_1_h5 - 20 y_2_h5 - 30 y_3_h5 <= 0
 R43: - x_h1_c1 + y_2_h1 + y_3_h1 >= 0
 R44: - x_h1_c3 + y_2_h1 + y_3_h1 >= 0
 R45: - x_h2_c1 + y_2_h2 + y_3_h2 >= 0
 R46: - x_h2_c3 + y_2_h2 + y_3_h2 >= 0
 R47: - x_h3_c3 + y_2_h3 + y_3_h3 >= 0
 R48: - x_h4_c6 + y_2_h4 + y_3_h4 >= 0
 R49: - x_h5_c1 + y_2_h5 + y_3_h5 >= 0
 R50: - x_h5_c3 + y_2_h5 + y_3_h5 >= 0
 R51: - x_h5_c6 + y_2_h5 + y_3_h5 >= 0
Bounds
 Constant = 1
Binaries
 x_h1_c1 x_h1_c2 x_h1_c3 x_h1_c4 x_h1_c5 x_h2_c1 x_h2_c2 x_h2_c3 x_h2_c4
 x_h2_c5 x_h2_c7 x_h3_c3 x_h3_c4 x_h3_c5 x_h4_c2 x_h4_c6 x_h4_c7 x_h4_c8
 x_h5_c1 x_h5_c2 x_h5_c3 x_h5_c4 x_h5_c5 x_h5_c6 x_h5_c7 y_1_h1 y_1_h2
 y_1_h3 y_1_h4 y_1_h5 y_2_h1 y_2_h2 y_2_h3 y_2_h4 y_2_h5 y_3_h1 y_3_h2
 y_3_h3 y_3_h4 y_3_h5
End
